NAME: S101D3_20
COMMENT: 1957.34
VEHICLE: 31
TIME: 600
DIMENSION: 101
CAPACITY: 160
DELIVERY_SECTION
0 0 0
1 1 16
2 1 1.6
3 1 1.6
4 1 1.6
5 1 0.2
6 2 32
7 2 1
8 3 32
9 3 32
10 3 8
11 3 1.6
12 3 1.6
13 3 1.6
14 3 1.6
15 3 0.6
16 4 16
17 4 8
18 4 1.6
19 4 1.6
20 4 1.6
21 4 0.2
22 5 32
23 5 1.6
24 5 1.6
25 5 1.6
26 5 0.2
27 6 32
28 6 8
29 6 1.6
30 6 1.6
31 6 1.6
32 6 0.2
33 7 32
34 7 32
35 7 8
36 7 1.6
37 7 1.4
38 8 32
39 8 1
40 9 32
41 9 16
42 9 8
43 9 1.6
44 9 1.6
45 9 0.8
46 10 32
47 10 16
48 10 8
49 10 1.6
50 10 0.4
51 11 32
52 11 32
53 11 1.6
54 11 1.6
55 11 0.8
56 12 32
57 12 1.6
58 12 1.6
59 12 1.6
60 12 1.2
61 13 32
62 13 32
63 13 8
64 13 1.6
65 13 0.4
66 14 32
67 14 32
68 14 1.6
69 14 1.6
70 14 1.6
71 14 0.2
72 15 32
73 15 16
74 15 8
75 15 1.6
76 15 1.6
77 15 0.8
78 16 32
79 16 8
80 16 1.6
81 16 1.6
82 16 0.8
83 17 32
84 17 32
85 17 8
86 17 1.6
87 17 1.6
88 17 1.6
89 17 1.6
90 17 0.6
91 18 32
92 18 32
93 18 8
94 18 1.6
95 18 1.6
96 18 1.6
97 18 0.2
98 19 32
99 19 16
100 19 1.6
101 19 1.6
102 19 0.8
103 20 32
104 20 16
105 20 1.6
106 20 1.6
107 20 0.8
108 21 32
109 21 32
110 21 8
111 21 1.6
112 21 1.6
113 21 1.6
114 21 0.2
115 22 32
116 22 32
117 22 8
118 22 1.6
119 22 1.6
120 22 1.6
121 22 1.6
122 22 0.6
123 23 32
124 23 8
125 23 1.6
126 23 1.6
127 23 0.8
128 24 32
129 24 16
130 24 8
131 24 1.6
132 24 1.6
133 24 0.8
134 25 32
135 25 32
136 25 1.6
137 25 1.6
138 25 1.6
139 25 0.2
140 26 32
141 26 32
142 26 8
143 26 1.6
144 26 0.4
145 27 32
146 27 1.6
147 27 1.6
148 27 1.6
149 27 1.2
150 28 32
151 28 32
152 28 1.6
153 28 1.6
154 28 0.8
155 29 32
156 29 16
157 29 8
158 29 1.6
159 29 0.4
160 30 32
161 30 16
162 30 8
163 30 1.6
164 30 1.4
165 31 32
166 31 1
167 32 32
168 32 32
169 32 8
170 32 1.6
171 32 1.4
172 33 32
173 33 8
174 33 1.6
175 33 1.6
176 33 1.6
177 33 0.2
178 34 32
179 34 1.6
180 34 1.6
181 34 0.8
182 35 16
183 35 8
184 35 1.6
185 35 1.6
186 35 1.6
187 35 0.2
188 36 32
189 36 32
190 36 8
191 36 1.6
192 36 1.6
193 36 1.6
194 36 1.6
195 36 0.6
196 37 32
197 37 1
198 38 16
199 38 1.6
200 38 1.6
201 38 1.6
202 38 1.2
203 39 16
204 39 8
205 39 1
206 40 32
207 40 32
208 40 8
209 40 1.6
210 40 1.6
211 40 1.6
212 40 1.2
213 41 16
214 41 1.6
215 41 1.6
216 41 1.6
217 41 1.2
218 42 32
219 42 16
220 42 1
221 43 16
222 43 1.6
223 43 1.6
224 43 1.6
225 43 1.6
226 43 0.6
227 44 32
228 44 32
229 44 1.6
230 44 1.6
231 44 1.6
232 44 1.6
233 44 0.6
234 45 16
235 45 1
236 46 32
237 46 32
238 46 1.6
239 46 1.6
240 46 1.6
241 46 1.2
242 47 16
243 47 1.6
244 47 1.6
245 47 1.6
246 47 0.2
247 48 32
248 48 16
249 48 8
250 48 1
251 49 16
252 49 8
253 50 32
254 50 32
255 50 8
256 50 1.6
257 50 1.6
258 50 1.6
259 50 1.6
260 50 0.6
261 51 16
262 51 1.6
263 51 1.6
264 51 0.8
265 52 32
266 52 1.6
267 52 1.4
268 53 16
269 53 8
270 53 1.6
271 53 1.6
272 53 1.6
273 53 0.2
274 54 32
275 54 32
276 54 8
277 54 1.6
278 54 1.4
279 55 16
280 55 1.6
281 55 1.6
282 55 0.8
283 56 16
284 56 1.6
285 56 1.6
286 56 1.6
287 56 1.2
288 57 16
289 57 8
290 57 1.6
291 57 1.6
292 57 1.6
293 57 1.6
294 57 0.6
295 58 32
296 58 16
297 58 8
298 58 1.6
299 58 1.4
300 59 16
301 59 1.6
302 59 1.6
303 59 0.8
304 60 32
305 60 16
306 61 16
307 61 8
308 61 1.6
309 61 1.6
310 61 1.6
311 61 1.6
312 61 0.6
313 62 32
314 62 1.6
315 62 0.4
316 63 16
317 63 1.6
318 63 1.6
319 63 0.8
320 64 32
321 64 32
322 64 1.6
323 64 1.6
324 64 1.6
325 64 0.2
326 65 16
327 65 8
328 65 1.6
329 65 1.6
330 65 1.6
331 65 1.2
332 66 16
333 66 8
334 67 16
335 67 1.6
336 67 1.6
337 67 0.8
338 68 32
339 68 32
340 68 8
341 68 1.6
342 68 1.6
343 68 1.6
344 68 1.6
345 68 0.6
346 69 16
347 69 8
348 69 1.6
349 69 0.4
350 70 32
351 70 16
352 71 16
353 71 1.6
354 71 1.6
355 71 1.6
356 71 0.2
357 72 32
358 72 32
359 72 8
360 72 1.6
361 72 1.6
362 72 0.8
363 73 16
364 73 1.6
365 73 1.6
366 73 1.6
367 73 0.2
368 74 32
369 74 32
370 74 1.6
371 74 0.4
372 75 16
373 75 1.6
374 75 1.6
375 75 1.6
376 75 1.2
377 76 32
378 76 16
379 76 8
380 76 1.6
381 76 1.6
382 76 0.8
383 77 16
384 77 1.6
385 77 0.4
386 78 32
387 78 32
388 78 8
389 78 1.6
390 78 1.6
391 78 0.8
392 79 16
393 79 8
394 80 32
395 80 1.6
396 80 1.4
397 81 16
398 81 8
399 81 1.6
400 81 1.6
401 81 0.8
402 82 32
403 82 32
404 82 8
405 82 1.6
406 82 1.6
407 82 1.6
408 82 1.6
409 82 0.6
410 83 16
411 83 8
412 83 1.6
413 83 1.4
414 84 16
415 84 8
416 85 32
417 85 8
418 86 32
419 86 32
420 86 8
421 86 1.6
422 86 1.6
423 86 1.6
424 86 0.2
425 87 16
426 87 8
427 87 1.6
428 87 1.6
429 87 1.6
430 87 1.6
431 87 0.6
432 88 32
433 88 16
434 88 1.6
435 88 0.4
436 89 32
437 89 16
438 89 1.6
439 89 1.6
440 89 0.8
441 90 32
442 90 32
443 90 1.6
444 90 1.6
445 90 1.6
446 90 1.6
447 90 0.6
448 91 32
449 91 1.6
450 91 1.4
451 92 32
452 92 32
453 92 1.6
454 92 1.6
455 92 0.8
456 93 32
457 93 32
458 94 32
459 94 32
460 95 32
461 95 8
462 95 1
463 96 32
464 96 32
465 96 8
466 96 1.6
467 96 1.6
468 96 1.6
469 96 1.2
470 97 32
471 97 32
472 97 8
473 97 1.6
474 97 0.4
475 98 32
476 98 16
477 98 1.6
478 98 1.6
479 98 1.6
480 98 1.6
481 98 0.6
482 99 32
483 99 16
484 100 32
485 100 32
486 100 8
487 100 1.6
488 100 1.6
489 100 1.6
490 100 1.6
491 100 0.6
PICKUP_SECTION
NODE_SECTION
35 35

41 49

35 17

55 45

55 20

15 30

25 30

20 50

10 43

55 60

30 60

20 65

50 35

30 25

15 10

30  5

10 20

 5 30

20 40

15 60

45 65

45 20

45 10

55  5

65 35

65 20

45 30

35 40

41 37

64 42

40 60

31 52

35 69

53 52

65 55

63 65

 2 60

20 20

 5  5

60 12

40 25

42  7

24 12

23  3

11 14

 6 38

 2 48

 8 56

13 52
 
6 68

47 47

49 58

27 43

37 31

57 29

63 23

53 12

32 12

36 26

21 24

17 34

12 24

24 58

27 69

15 77

62 77

49 73

67  5

56 39

37 47

37 56

57 68

47 16

44 17

46 13

49 11

49 42

53 43

61 52

57 48

56 37

55 54

15 47

14 37

11 31

16 22

 4 18

28 18

26 52

26 35

31 67

15 19

22 22

18 24

26 27

25 24

22 27

25 21

19 21

20 26

18 18
DISTANCE_SECTION
DEPOT_SECTION
0
EOF